&BANDS
outdir = '../tmp/'
prefix = 'CrSSe'
filband = 'CrSSe.bands'
/
