&INPUTPP
outdir = '../tmp/'
prefix = 'CrSSe'
plot_num = 0
/
&PLOT
iflag = 3
output_format = 6
fileout = 'CrSSe_rho.cube'
nx = 64
ny = 64
nz = 12
/
